data/solutions/recovery/degenerate/intermediate/binding/degenerate_intermediate_instance37/100.sol
Elapsed time: 0.04
Upper bound: 199826.0
Planning weighted value: 9937845900.0
C[0]=199826.0
C[1]=198605.0
C[2]=188539.0
C[3]=186428.0
C[4]=183452.0
C[5]=176906.0
C[6]=174190.0
C[7]=173298.0
C[8]=159715.0
C[9]=147529.0
C[10]=128818.0
C[11]=128151.0
C[12]=124872.0
C[13]=119679.0
C[14]=0.0
C[15]=0.0
y[0]=1
y[1]=0
y[2]=1
y[3]=4
y[4]=4
y[5]=11
y[6]=6
y[7]=5
y[8]=3
y[9]=7
y[10]=13
y[11]=4
y[12]=12
y[13]=2
y[14]=9
y[15]=10
y[16]=3
y[17]=13
y[18]=10
y[19]=1
y[20]=5
y[21]=8
y[22]=12
y[23]=7
y[24]=1
y[25]=5
y[26]=3
y[27]=6
y[28]=8
y[29]=13
y[30]=4
y[31]=3
y[32]=3
y[33]=1
y[34]=2
y[35]=0
y[36]=1
y[37]=3
y[38]=10
y[39]=7
y[40]=11
y[41]=9
y[42]=5
y[43]=3
y[44]=4
y[45]=12
y[46]=12
y[47]=1
y[48]=8
y[49]=11
y[50]=1
y[51]=0
y[52]=9
y[53]=2
y[54]=10
y[55]=13
y[56]=5
y[57]=7
y[58]=9
y[59]=4
y[60]=7
y[61]=8
y[62]=0
y[63]=6
y[64]=5
